
List of user-set options:

                                    Name   Value                used
                           compl_inf_tol = 1                     yes
                         constr_viol_tol = 1                     yes
                            dual_inf_tol = 1000                  yes
                           linear_solver = ma97                  yes
                              ma86_small = 1e-30                  no
                                  ma86_u = 0.0001                 no
                              ma97_order = best                  yes
                              ma97_small = 1e-30                 yes
                            ma97_switch1 = at_start              yes
                            ma97_switch2 = od_hd_reuse           yes
                                  ma97_u = 1e-06                 yes
                               ma97_umax = 0.5                   yes
                                max_iter = 1000                  yes
                    max_refinement_steps = 20                    yes
                    min_refinement_steps = 5                     yes
                                 mu_init = 1e-06                 yes
           mu_superlinear_decrease_power = 1.25                  yes
                   nlp_scaling_min_value = 1e-08                 yes
                        option_file_name = Preset_Case_827_pf.opt  yes
                             output_file = ./tmp/Preset_Case_827_pf.output  yes
                      print_user_options = yes                   yes
        required_infeasibility_reduction = 1                      no
                                     tol = 1e-08                 yes
                   warm_start_bound_frac = 1e-20                 yes
                   warm_start_bound_push = 1e-20                 yes
                   warm_start_init_point = yes                   yes
              warm_start_mult_bound_push = 1e-20                 yes
                warm_start_mult_init_max = 1e+40                 yes
             warm_start_slack_bound_frac = 1e-20                 yes
             warm_start_slack_bound_push = 1e-20                 yes

******************************************************************************
This program contains Ipopt, a library for large-scale nonlinear optimization.
 Ipopt is released as open source code under the Eclipse Public License (EPL).
         For more information visit http://projects.coin-or.org/Ipopt
******************************************************************************

This is Ipopt version 3.12.10, running with linear solver ma97.

Number of nonzeros in equality constraint Jacobian...:   123442
Number of nonzeros in inequality constraint Jacobian.:      213
Number of nonzeros in Lagrangian Hessian.............:    49069

Total number of variables............................:    31591
                     variables with only lower bounds:    12912
                variables with lower and upper bounds:    15130
                     variables with only upper bounds:        0
Total number of equality constraints.................:    31483
Total number of inequality constraints...............:       25
        inequality constraints with only lower bounds:        4
   inequality constraints with lower and upper bounds:        0
        inequality constraints with only upper bounds:       21

iter    objective    inf_pr   inf_du lg(mu)  ||d||  lg(rg) alpha_du alpha_pr  ls
   0 -5.3888858e+00 4.40e-03 1.02e+00  -6.0 0.00e+00    -  0.00e+00 0.00e+00   0
   1 -5.3881725e+00 1.77e-02 1.02e+00  -6.0 2.84e+05    -  1.15e-04 5.61e-05h  5
   2 -5.3896417e+00 1.77e-02 3.82e+01  -6.0 5.55e+03    -  1.68e-01 1.23e-03h  1
   3 -5.7655772e+00 3.53e+00 1.57e+03  -6.0 5.50e+03    -  6.53e-02 3.15e-01f  1
   4 -5.7655786e+00 3.53e+00 1.61e+03  -6.0 3.88e+00  -4.0 5.43e-01 1.38e-05h  1
   5 -5.9153420e+00 4.11e+00 1.59e+03  -6.0 6.77e+03    -  1.95e-01 2.26e-01h  1
   6 -5.9583099e+00 3.83e+00 1.44e+03  -6.0 1.34e+03    -  3.91e-02 1.23e-01h  1
   7 -5.8623318e+00 5.70e+00 3.56e+02  -6.0 3.75e+02  -4.5 2.22e-01 1.00e+00h  1
   8 -5.9553479e+00 2.83e+00 4.13e+02  -6.0 5.58e+01  -5.0 8.09e-01 5.03e-01h  1
   9 -5.9796896e+00 2.11e+00 3.22e+02  -6.0 3.45e+01  -5.4 4.58e-01 3.31e-01h  1
iter    objective    inf_pr   inf_du lg(mu)  ||d||  lg(rg) alpha_du alpha_pr  ls
  10 -6.0453452e+00 5.29e+00 2.63e+03  -6.0 5.26e+01  -5.9 9.04e-02 1.00e+00h  1
  11 -6.0381472e+00 3.68e+00 1.81e+03  -6.0 9.33e+00  -4.6 3.50e-01 3.08e-01h  1
  12 -6.0374675e+00 3.48e+00 1.95e+03  -6.0 1.24e+01  -5.1 2.48e-02 5.43e-02h  1
  13 -6.0316998e+00 4.03e-02 3.60e+01  -6.0 3.47e+01  -5.5 1.00e+00 1.00e+00h  1
  14 -6.1520461e+00 6.48e+00 1.97e+03  -6.0 6.50e+03    -  3.35e-01 3.50e-01h  1
  15 -6.1535978e+00 6.38e+00 1.22e+04  -6.0 1.50e+03    -  2.08e-01 1.44e-02h  1
  16 -6.1395701e+00 7.52e+00 4.30e+04  -6.0 2.00e+02  -6.0 1.75e-04 8.70e-01h  1
  17 -6.1446792e+00 7.05e+00 5.55e+04  -6.0 1.46e+03    -  4.24e-01 6.72e-02h  1
  18 -6.1726362e+00 4.21e+00 3.87e+04  -6.0 9.19e+02    -  6.02e-01 4.18e-01h  1
  19 -6.1784756e+00 3.56e+00 1.94e+04  -6.0 8.64e+02    -  2.63e-01 1.69e-01h  1
iter    objective    inf_pr   inf_du lg(mu)  ||d||  lg(rg) alpha_du alpha_pr  ls
  20 -6.1850103e+00 3.20e+00 8.82e+04  -6.0 1.40e+03    -  8.57e-02 1.64e-01h  1
  21 -6.1851830e+00 3.18e+00 8.72e+04  -6.0 8.99e+02    -  1.58e-03 8.47e-03h  1
  22 -6.1963635e+00 8.99e+00 1.19e+04  -6.0 9.11e+02    -  9.51e-01 8.67e-01f  1
  23 -6.1963431e+00 8.58e+00 1.15e+04  -6.0 6.45e+01  -6.5 6.13e-03 4.54e-02h  1
  24 -6.1999389e+00 4.20e+00 4.55e+03  -6.0 2.25e+02  -7.0 7.53e-01 5.11e-01h  1
  25 -6.2046890e+00 2.65e+00 1.04e+04  -6.0 3.76e+02    -  3.80e-01 4.76e-01h  1
  26 -6.2076689e+00 2.29e+00 2.08e+03  -6.0 3.34e+02    -  1.74e-01 1.44e-01h  1
  27 -6.2165585e+00 1.31e+00 8.21e+04  -6.0 2.90e+02    -  9.79e-01 6.48e-01h  1
  28 -6.2192483e+00 1.09e+00 2.48e+05  -6.0 4.87e+02    -  1.08e-01 1.66e-01h  1
  29 -6.2192686e+00 1.09e+00 2.66e+05  -6.0 7.82e+02    -  3.35e-01 3.41e-04h  1
iter    objective    inf_pr   inf_du lg(mu)  ||d||  lg(rg) alpha_du alpha_pr  ls
  30 -6.2331238e+00 9.46e-01 2.39e+06  -6.0 2.75e+02    -  4.16e-02 5.75e-01f  1
  31 -6.2344128e+00 9.10e-01 4.06e+04  -6.0 3.49e+02    -  5.46e-01 4.42e-02h  1
  32 -6.2423922e+00 9.22e-01 4.76e+04  -6.0 3.57e+02    -  2.81e-01 2.71e-01h  1
  33r-6.2423922e+00 9.22e-01 1.00e+03  -0.0 0.00e+00    -  0.00e+00 1.27e-07R  2
  34r-6.2657963e+00 9.21e-01 1.00e+03  -0.0 1.35e+04    -  5.16e-06 1.76e-06f  1
  35 -6.2648055e+00 8.92e-01 2.34e+04  -6.0 1.84e+01    -  1.34e-06 3.14e-02h  1
  36 -6.2624839e+00 8.25e-01 2.17e+04  -6.0 1.71e+01    -  9.23e-02 7.55e-02h  1
  37 -6.2563024e+00 6.45e-01 1.70e+04  -6.0 1.28e+01    -  1.58e-01 2.18e-01h  1
  38 -6.2430605e+00 2.61e-01 6.86e+03  -6.0 6.55e+00    -  5.57e-01 5.96e-01h  1
  39 -6.2347127e+00 1.87e-04 5.98e+01  -6.0 2.35e+00    -  5.88e-01 1.00e+00h  1
iter    objective    inf_pr   inf_du lg(mu)  ||d||  lg(rg) alpha_du alpha_pr  ls
  40 -6.2360651e+00 7.90e-05 6.47e+00  -6.0 1.48e+00    -  9.22e-01 1.00e+00h  1
  41 -6.2375331e+00 1.75e-03 5.99e-01  -6.0 7.38e+00    -  9.17e-01 1.00e+00h  1
  42 -6.2394280e+00 7.12e-02 2.15e+00  -6.0 4.71e+01    -  9.21e-01 1.00e+00h  1
  43 -6.2409084e+00 2.48e-01 4.69e+03  -6.0 1.10e+02    -  4.65e-01 1.00e+00H  1
  44 -6.2517686e+00 4.57e-02 7.27e-01  -6.0 3.37e+01    -  9.58e-01 1.00e+00h  1
  45 -6.2505038e+00 4.21e-02 1.51e+01  -6.0 7.67e+01    -  9.94e-01 1.82e-01h  3
  46 -6.2405649e+00 5.84e-03 1.40e+03  -6.0 7.89e+01    -  1.00e+00 1.00e+00H  1
  47 -6.2412966e+00 2.64e-02 6.99e+02  -6.0 4.77e+01    -  1.00e+00 5.00e-01h  2
  48 -6.2419968e+00 2.23e-02 5.60e-01  -6.0 2.33e+01    -  1.00e+00 1.00e+00h  1
  49 -6.2416675e+00 2.91e-03 2.07e-01  -6.0 8.43e+00    -  1.00e+00 1.00e+00h  1
iter    objective    inf_pr   inf_du lg(mu)  ||d||  lg(rg) alpha_du alpha_pr  ls
  50 -6.2415837e+00 2.18e-03 2.43e+00  -6.0 8.24e+00    -  1.00e+00 6.17e-01h  1
  51 -6.2414441e+00 3.90e-04 2.56e-02  -6.0 3.08e+00    -  1.00e+00 1.00e+00h  1
  52 -6.2414615e+00 1.45e-04 9.71e-03  -6.0 1.88e+00    -  1.00e+00 1.00e+00h  1
  53 -6.2414623e+00 1.11e-05 7.38e-04  -6.0 5.19e-01    -  1.00e+00 1.00e+00h  1
  54 -6.2414622e+00 3.44e-08 2.37e-06  -6.0 2.89e-02    -  1.00e+00 1.00e+00h  1
  55 -6.2415100e+00 8.65e-03 1.44e+02  -7.5 5.13e+01    -  9.27e-01 4.31e-01h  1
  56 -6.2415480e+00 1.87e-02 1.92e+01  -7.5 3.58e+01    -  1.00e+00 8.83e-01h  1
  57 -6.2415458e+00 2.65e-04 3.87e-02  -7.5 3.85e+00    -  1.00e+00 1.00e+00h  1
  58 -6.2415457e+00 1.77e-08 3.69e-08  -7.5 9.89e-03    -  1.00e+00 1.00e+00h  1
  59 -6.2415474e+00 4.89e-05 5.47e-01  -9.0 1.93e+00    -  9.22e-01 8.62e-01h  1
iter    objective    inf_pr   inf_du lg(mu)  ||d||  lg(rg) alpha_du alpha_pr  ls
  60 -6.2415476e+00 1.26e-06 3.19e-01  -9.0 2.67e-01    -  9.11e-01 1.00e+00f  1
  61 -6.2415476e+00 2.93e-10 6.44e-09  -9.0 6.76e-05    -  1.00e+00 1.00e+00h  1

Number of Iterations....: 61

                                   (scaled)                 (unscaled)
Objective...............:  -4.8762090835457927e+00   -6.2415476269386145e+00
Dual infeasibility......:   6.4432368881570414e-09    8.2473432168410130e-09
Constraint violation....:   2.9299396524413990e-10    2.9299396524413990e-10
Complementarity.........:   1.3212931430041473e-09    1.6912552230453087e-09
Overall NLP error.......:   6.4432368881570414e-09    8.2473432168410130e-09


Number of objective function evaluations             = 78
Number of objective gradient evaluations             = 62
Number of equality constraint evaluations            = 78
Number of inequality constraint evaluations          = 78
Number of equality constraint Jacobian evaluations   = 63
Number of inequality constraint Jacobian evaluations = 63
Number of Lagrangian Hessian evaluations             = 61
Total CPU secs in IPOPT (w/o function evaluations)   =    130.922
Total CPU secs in NLP function evaluations           =      2.538

EXIT: Optimal Solution Found.
